p cnf 386 940
-1 15 0 
1 384 0 
-97 82 0 
-97 84 0 
-98 99 102 0 
-99 100 101 0 
-100 80 0 
-100 81 0 
-101 81 0 
-101 85 0 
-102 80 0 
-102 85 0 
-103 -104 0 
-104 -105 -111 0 
-104 105 111 0 
-105 -106 -107 0 
-105 106 107 0 
-107 -108 -110 0 
-107 108 110 0 
-108 -109 0 
-110 97 0 
-110 95 0 
-111 112 115 0 
-112 113 114 0 
-113 93 0 
-113 94 0 
-114 98 0 
-114 94 0 
-115 98 0 
-115 93 0 
-116 -117 0 
-11 -12 0 
-117 -118 -124 0 
-117 118 124 0 
-118 -119 -120 0 
-118 119 120 0 
-120 -121 -123 0 
-120 121 123 0 
-121 -122 0 
-123 108 0 
-123 110 0 
-124 125 128 0 
-125 126 127 0 
-126 106 0 
-126 107 0 
-12 -13 14 0 
-12 -14 13 0 
-127 107 0 
-127 111 0 
-128 106 0 
-128 111 0 
-129 -130 0 
-130 -131 -137 0 
-130 131 137 0 
-131 -132 -133 0 
-131 132 133 0 
-133 -134 -136 0 
-133 134 136 0 
-134 -135 0 
-136 121 0 
-136 123 0 
-137 138 141 0 
-138 139 140 0 
-139 119 0 
-139 120 0 
-140 120 0 
-140 124 0 
-141 119 0 
-141 124 0 
-142 -143 0 
-143 -144 -150 0 
-143 144 150 0 
-144 -145 -146 0 
-144 145 146 0 
-146 -147 -149 0 
-146 147 149 0 
-147 -148 0 
-149 134 0 
-149 136 0 
-150 151 154 0 
-151 152 153 0 
-152 132 0 
-152 133 0 
-153 133 0 
-153 137 0 
-154 132 0 
-154 137 0 
-155 -156 0 
-156 -157 -163 0 
-156 157 163 0 
-15 -16 17 0 
-15 16 19 0 
-157 -158 -159 0 
-157 158 159 0 
-159 -160 -162 0 
-159 160 162 0 
-160 -161 0 
-162 147 0 
-162 149 0 
-163 164 167 0 
-164 165 166 0 
-165 145 0 
-165 146 0 
-166 146 0 
-166 150 0 
-16 13 0 
-167 145 0 
-167 150 0 
-168 -169 0 
-169 -170 -176 0 
-169 170 176 0 
-170 -171 -172 0 
-170 171 172 0 
-172 -173 -175 0 
-172 173 175 0 
-173 -174 0 
-175 160 0 
-175 162 0 
-176 177 180 0 
-177 178 179 0 
-178 158 0 
-178 159 0 
-179 159 0 
-179 163 0 
-180 158 0 
-180 163 0 
-181 -182 0 
-182 -183 -189 0 
-182 183 189 0 
-183 -184 -185 0 
-183 184 185 0 
-185 -186 -188 0 
-185 186 188 0 
-186 -187 0 
-17 -18 0 
-188 173 0 
-188 175 0 
-189 190 193 0 
-190 191 192 0 
-191 171 0 
-191 172 0 
-192 172 0 
-192 176 0 
-193 171 0 
-193 176 0 
-194 -195 0 
-195 -196 -202 0 
-195 196 202 0 
-196 -197 -198 0 
-196 197 198 0 
-1 2 11 0 
-198 -199 -201 0 
-198 199 201 0 
-199 -200 0 
-201 186 0 
-201 188 0 
-202 203 206 0 
-203 204 205 0 
-204 184 0 
-204 185 0 
-205 185 0 
-205 189 0 
-206 184 0 
-206 189 0 
-207 -208 0 
-208 -209 -215 0 
-208 209 215 0 
-209 -210 -211 0 
-209 210 211 0 
-211 -212 -214 0 
-211 212 214 0 
-212 -213 0 
-214 199 0 
-214 201 0 
-215 216 219 0 
-216 217 218 0 
-19 -20 17 0 
-19 20 233 0 
-217 197 0 
-217 198 0 
-218 198 0 
-218 202 0 
-219 197 0 
-219 202 0 
-220 -221 0 
-221 -222 -228 0 
-221 222 228 0 
-222 -223 -224 0 
-222 223 224 0 
-224 -225 -227 0 
-224 225 227 0 
-225 -226 0 
-20 220 0 
-20 21 0 
-227 212 0 
-227 214 0 
-228 229 232 0 
-229 230 231 0 
-230 210 0 
-230 211 0 
-231 211 0 
-231 215 0 
-232 210 0 
-232 215 0 
-233 -234 236 0 
-233 234 384 0 
-234 235 0 
-234 7 0 
-235 9 0 
-236 -237 238 0 
-236 237 386 0 
-21 207 0 
-21 22 0 
-237 -5 0 
-238 -239 383 0 
-238 239 384 0 
-239 -240 251 0 
-239 240 330 0 
-240 241 248 0 
-241 242 245 0 
-242 -243 0 
-243 -244 6 0 
-243 -6 244 0 
-245 -246 0 
-246 -10 247 0 
-246 -247 10 0 
-22 194 0 
-22 23 0 
-248 -249 0 
-249 -14 250 0 
-249 -250 14 0 
-251 -252 0 
-251 252 253 0 
-252 14 0 
-23 181 0 
-23 24 0 
-253 -254 0 
-253 254 301 0 
-254 255 0 
-254 299 0 
-255 256 0 
-255 297 0 
-256 257 0 
-256 295 0 
-257 258 0 
-257 293 0 
-258 259 0 
-258 291 0 
-24 168 0 
-24 25 0 
-259 260 0 
-259 289 0 
-260 261 0 
-260 287 0 
-261 262 0 
-261 285 0 
-262 263 0 
-262 283 0 
-263 264 0 
-263 281 0 
-264 265 0 
-264 279 0 
-265 266 0 
-265 277 0 
-266 267 0 
-266 275 0 
-267 268 0 
-267 273 0 
-268 269 0 
-268 271 0 
-25 155 0 
-25 26 0 
-269 270 0 
-271 -272 0 
-273 -274 0 
-275 -276 0 
-277 -278 0 
-26 142 0 
-26 27 0 
-279 -280 0 
-281 -282 0 
-283 -284 0 
-285 -286 0 
-287 -288 0 
-2 3 7 0 
-27 129 0 
-27 28 0 
-289 -290 0 
-291 -292 0 
-293 -294 0 
-295 -296 0 
-297 -298 0 
-28 116 0 
-28 29 0 
-299 -300 0 
-301 -302 304 0 
-301 302 330 0 
-302 245 0 
-302 303 0 
-303 10 0 
-304 -305 306 0 
-304 305 306 0 
-305 -6 0 
-306 -307 330 0 
-306 307 345 0 
-307 308 0 
-307 328 0 
-308 309 0 
-308 326 0 
-29 103 0 
-29 30 0 
-309 310 0 
-309 324 0 
-310 311 0 
-310 322 0 
-311 312 0 
-311 320 0 
-312 313 0 
-312 318 0 
-313 314 0 
-313 316 0 
-314 315 0 
-316 317 0 
-318 319 0 
-30 31 0 
-30 90 0 
-320 321 0 
-322 323 0 
-324 325 0 
-326 327 0 
-328 329 0 
-31 32 0 
-31 77 0 
-330 331 0 
-330 344 0 
-331 332 0 
-331 343 0 
-332 333 0 
-332 342 0 
-333 334 0 
-333 341 0 
-334 335 0 
-334 340 0 
-335 336 0 
-335 339 0 
-336 337 0 
-336 338 0 
-337 315 0 
-338 317 0 
-32 33 0 
-32 64 0 
-339 319 0 
-340 321 0 
-341 323 0 
-342 325 0 
-343 327 0 
-344 329 0 
-345 346 0 
-345 379 0 
-346 347 0 
-346 375 0 
-347 348 0 
-347 371 0 
-348 349 0 
-348 367 0 
-33 34 0 
-33 51 0 
-349 350 0 
-349 363 0 
-350 351 0 
-350 359 0 
-351 352 0 
-351 355 0 
-352 353 0 
-353 354 0 
-354 -315 0 
-355 356 0 
-356 -357 -358 0 
-356 357 358 0 
-357 317 0 
-358 315 0 
-34 35 0 
-34 42 0 
-359 360 0 
-360 -361 -362 0 
-360 361 362 0 
-361 319 0 
-362 317 0 
-362 358 0 
-363 364 0 
-364 -365 -366 0 
-364 365 366 0 
-365 321 0 
-366 319 0 
-366 362 0 
-367 368 0 
-368 -369 -370 0 
-368 369 370 0 
-35 36 0 
-369 323 0 
-370 321 0 
-370 366 0 
-371 372 0 
-372 -373 -374 0 
-372 373 374 0 
-373 325 0 
-374 323 0 
-374 370 0 
-375 376 0 
-376 -377 -378 0 
-376 377 378 0 
-377 327 0 
-378 325 0 
-378 374 0 
-36 37 0 
-379 380 0 
-380 -381 -382 0 
-380 381 382 0 
-381 329 0 
-382 327 0 
-382 378 0 
-383 18 0 
-384 -18 385 0 
-384 -385 18 0 
-386 -239 17 0 
-386 239 384 0 
-3 -4 0 
-37 -38 -39 0 
-37 38 39 0 
-39 -40 0 
-40 -41 0 
-42 -43 0 
-43 -44 -50 0 
-43 44 50 0 
-44 -45 -46 0 
-44 45 46 0 
-46 -47 -49 0 
-46 47 49 0 
-4 -5 6 0 
-4 -6 5 0 
-47 -48 0 
-49 40 0 
-50 38 0 
-50 39 0 
-51 -52 0 
-52 -53 -59 0 
-52 53 59 0 
-53 -54 -55 0 
-53 54 55 0 
-55 -56 -58 0 
-55 56 58 0 
-56 -57 0 
-58 47 0 
-58 49 0 
-59 60 63 0 
-60 61 62 0 
-61 45 0 
-61 46 0 
-62 46 0 
-62 50 0 
-63 45 0 
-63 50 0 
-64 -65 0 
-65 -66 -72 0 
-65 66 72 0 
-66 -67 -68 0 
-66 67 68 0 
-68 -69 -71 0 
-68 69 71 0 
-69 -70 0 
-71 56 0 
-71 58 0 
-72 73 76 0 
-73 74 75 0 
-74 54 0 
-74 55 0 
-75 55 0 
-75 59 0 
-76 54 0 
-76 59 0 
-7 -8 0 
-77 -78 0 
-78 -79 -85 0 
-78 79 85 0 
-79 -80 -81 0 
-79 80 81 0 
-81 -82 -84 0 
-81 82 84 0 
-82 -83 0 
-84 69 0 
-84 71 0 
-85 86 89 0 
-86 87 88 0 
-8 -9 10 0 
-8 -10 9 0 
-87 67 0 
-87 68 0 
-88 68 0 
-88 72 0 
-89 67 0 
-89 72 0 
-90 -91 0 
-91 -92 -98 0 
-91 92 98 0 
-92 -93 -94 0 
-92 93 94 0 
-94 -95 -97 0 
-94 95 97 0 
-95 -96 0 
97 -82 -84 0 
98 -99 0 
98 -102 0 
99 -100 0 
99 -101 0 
100 -80 -81 0 
101 -81 -85 0 
102 -80 -85 0 
103 104 0 
104 -105 111 0 
104 -111 105 0 
105 -106 107 0 
105 -107 106 0 
107 -108 110 0 
107 -110 108 0 
108 109 0 
110 -95 -97 0 
111 -112 0 
111 -115 0 
112 -113 0 
112 -114 0 
113 -93 -94 0 
114 -94 -98 0 
115 -93 -98 0 
116 117 0 
11 12 0 
117 -118 124 0 
117 -124 118 0 
118 -119 120 0 
118 -120 119 0 
120 -121 123 0 
120 -123 121 0 
121 122 0 
123 -108 -110 0 
124 -125 0 
124 -128 0 
125 -126 0 
125 -127 0 
126 -106 -107 0 
12 -13 -14 0 
12 13 14 0 
127 -107 -111 0 
128 -106 -111 0 
129 130 0 
130 -131 137 0 
130 -137 131 0 
131 -132 133 0 
131 -133 132 0 
133 -134 136 0 
133 -136 134 0 
134 135 0 
136 -121 -123 0 
137 -138 0 
137 -141 0 
138 -139 0 
138 -140 0 
139 -119 -120 0 
140 -120 -124 0 
141 -119 -124 0 
142 143 0 
143 -144 150 0 
143 -150 144 0 
144 -145 146 0 
144 -146 145 0 
146 -147 149 0 
146 -149 147 0 
147 148 0 
149 -134 -136 0 
150 -151 0 
150 -154 0 
151 -152 0 
151 -153 0 
152 -132 -133 0 
153 -133 -137 0 
154 -132 -137 0 
155 156 0 
156 -157 163 0 
156 -163 157 0 
15 -16 -17 0 
15 -17 -19 0 
15 16 -19 0 
157 -158 159 0 
157 -159 158 0 
159 -160 162 0 
159 -162 160 0 
160 161 0 
162 -147 -149 0 
163 -164 0 
163 -167 0 
164 -165 0 
164 -166 0 
165 -145 -146 0 
166 -146 -150 0 
16 -13 0 
167 -145 -150 0 
168 169 0 
169 -170 176 0 
169 -176 170 0 
170 -171 172 0 
170 -172 171 0 
172 -173 175 0 
172 -175 173 0 
173 174 0 
175 -160 -162 0 
176 -177 0 
176 -180 0 
177 -178 0 
177 -179 0 
178 -158 -159 0 
179 -159 -163 0 
180 -158 -163 0 
181 182 0 
182 -183 189 0 
182 -189 183 0 
183 -184 185 0 
183 -185 184 0 
185 -186 188 0 
185 -188 186 0 
186 187 0 
17 18 0 
188 -173 -175 0 
189 -190 0 
189 -193 0 
190 -191 0 
190 -192 0 
191 -171 -172 0 
192 -172 -176 0 
193 -171 -176 0 
194 195 0 
195 -196 202 0 
195 -202 196 0 
196 -197 198 0 
196 -198 197 0 
1 -11 0 
1 -2 0 
198 -199 201 0 
198 -201 199 0 
199 200 0 
201 -186 -188 0 
202 -203 0 
202 -206 0 
203 -204 0 
203 -205 0 
204 -184 -185 0 
205 -185 -189 0 
206 -184 -189 0 
207 208 0 
208 -209 215 0 
208 -215 209 0 
209 -210 211 0 
209 -211 210 0 
211 -212 214 0 
211 -214 212 0 
212 213 0 
214 -199 -201 0 
215 -216 0 
215 -219 0 
216 -217 0 
216 -218 0 
19 -17 -233 0 
19 -20 -17 0 
19 20 -233 0 
217 -197 -198 0 
218 -198 -202 0 
219 -197 -202 0 
220 221 0 
221 -222 228 0 
221 -228 222 0 
222 -223 224 0 
222 -224 223 0 
224 -225 227 0 
224 -227 225 0 
225 226 0 
20 -21 -220 0 
227 -212 -214 0 
228 -229 0 
228 -232 0 
229 -230 0 
229 -231 0 
230 -210 -211 0 
231 -211 -215 0 
232 -210 -215 0 
233 -234 -236 0 
233 -236 -384 0 
233 234 -384 0 
234 -7 -235 0 
235 -9 0 
236 -237 -238 0 
236 -238 -386 0 
236 237 -386 0 
21 -22 -207 0 
237 5 0 
238 -239 -383 0 
238 -383 -384 0 
238 239 -384 0 
239 -240 -251 0 
239 -251 -330 0 
239 240 -330 0 
240 -241 0 
240 -248 0 
241 -242 0 
241 -245 0 
242 243 0 
243 -6 -244 0 
243 6 244 0 
245 246 0 
246 -10 -247 0 
246 10 247 0 
22 -23 -194 0 
248 249 0 
249 -14 -250 0 
249 14 250 0 
251 252 -253 0 
252 -14 0 
23 -24 -181 0 
253 254 -301 0 
254 -255 -299 0 
255 -256 -297 0 
256 -257 -295 0 
257 -258 -293 0 
258 -259 -291 0 
24 -25 -168 0 
259 -260 -289 0 
260 -261 -287 0 
261 -262 -285 0 
262 -263 -283 0 
263 -264 -281 0 
264 -265 -279 0 
265 -266 -277 0 
266 -267 -275 0 
267 -268 -273 0 
268 -269 -271 0 
25 -26 -155 0 
269 -270 0 
271 272 0 
273 274 0 
275 276 0 
277 278 0 
26 -27 -142 0 
279 280 0 
281 282 0 
283 284 0 
285 286 0 
287 288 0 
2 -3 0 
2 -7 0 
27 -28 -129 0 
289 290 0 
291 292 0 
293 294 0 
295 296 0 
297 298 0 
28 -29 -116 0 
299 300 0 
301 -302 -304 0 
301 -304 -330 0 
301 302 -330 0 
302 -245 -303 0 
303 -10 0 
304 -305 -306 0 
304 -306 0 
304 305 -306 0 
305 6 0 
306 -307 -330 0 
306 -330 -345 0 
306 307 -345 0 
307 -308 -328 0 
308 -309 -326 0 
29 -30 -103 0 
309 -310 -324 0 
310 -311 -322 0 
311 -312 -320 0 
312 -313 -318 0 
313 -314 -316 0 
314 -315 0 
316 -317 0 
318 -319 0 
30 -31 -90 0 
320 -321 0 
322 -323 0 
324 -325 0 
326 -327 0 
328 -329 0 
31 -32 -77 0 
330 -331 -344 0 
331 -332 -343 0 
332 -333 -342 0 
333 -334 -341 0 
334 -335 -340 0 
335 -336 -339 0 
336 -337 -338 0 
337 -315 0 
338 -317 0 
32 -33 -64 0 
339 -319 0 
340 -321 0 
341 -323 0 
342 -325 0 
343 -327 0 
344 -329 0 
345 -346 -379 0 
346 -347 -375 0 
347 -348 -371 0 
348 -349 -367 0 
33 -34 -51 0 
349 -350 -363 0 
350 -351 -359 0 
351 -352 -355 0 
352 -353 0 
353 -354 0 
354 315 0 
355 -356 0 
356 -357 358 0 
356 -358 357 0 
357 -317 0 
358 -315 0 
34 -35 -42 0 
359 -360 0 
360 -361 362 0 
360 -362 361 0 
361 -319 0 
362 -317 -358 0 
363 -364 0 
364 -365 366 0 
364 -366 365 0 
365 -321 0 
366 -319 -362 0 
367 -368 0 
368 -369 370 0 
368 -370 369 0 
35 -36 0 
369 -323 0 
370 -321 -366 0 
371 -372 0 
372 -373 374 0 
372 -374 373 0 
373 -325 0 
374 -323 -370 0 
375 -376 0 
376 -377 378 0 
376 -378 377 0 
377 -327 0 
378 -325 -374 0 
36 -37 0 
379 -380 0 
380 -381 382 0 
380 -382 381 0 
381 -329 0 
382 -327 -378 0 
383 -18 0 
384 -18 -385 0 
384 18 385 0 
386 -17 -384 0 
386 -239 -17 0 
386 239 -384 0 
3 4 0 
37 -38 39 0 
37 -39 38 0 
39 40 0 
40 41 0 
42 43 0 
43 -44 50 0 
43 -50 44 0 
44 -45 46 0 
44 -46 45 0 
46 -47 49 0 
46 -49 47 0 
4 -5 -6 0 
4 5 6 0 
47 48 0 
49 -40 0 
50 -38 -39 0 
51 52 0 
52 -53 59 0 
52 -59 53 0 
53 -54 55 0 
53 -55 54 0 
55 -56 58 0 
55 -58 56 0 
56 57 0 
58 -47 -49 0 
59 -60 0 
59 -63 0 
60 -61 0 
60 -62 0 
61 -45 -46 0 
62 -46 -50 0 
63 -45 -50 0 
64 65 0 
65 -66 72 0 
65 -72 66 0 
66 -67 68 0 
66 -68 67 0 
68 -69 71 0 
68 -71 69 0 
69 70 0 
71 -56 -58 0 
72 -73 0 
72 -76 0 
73 -74 0 
73 -75 0 
74 -54 -55 0 
75 -55 -59 0 
76 -54 -59 0 
7 8 0 
77 78 0 
78 -79 85 0 
78 -85 79 0 
79 -80 81 0 
79 -81 80 0 
81 -82 84 0 
81 -84 82 0 
82 83 0 
84 -69 -71 0 
85 -86 0 
85 -89 0 
86 -87 0 
86 -88 0 
8 -9 -10 0 
8 9 10 0 
87 -67 -68 0 
88 -68 -72 0 
89 -67 -72 0 
90 91 0 
91 -98 92 0 
91 -92 98 0 
92 -93 94 0 
92 -94 93 0 
94 -97 95 0 
94 -95 97 0 
95 96 0 
